HUN,8,6,195
0,9,2,8,1,24,5,17,4,5,3,7
1,3,2,16,0,26,4,24,3,15,5,11
2,2,0,23,1,20,4,28,5,12,3,17
2,11,0,24,1,24,5,6,4,27,3,27
0,11,2,15,1,23,3,29,4,6,5,29
0,6,2,12,1,6,5,29,3,15,4,27
1,13,2,16,0,17,3,22,5,16,4,18
2,6,1,7,0,30,3,13,5,12,4,7
